&control
calculation='scf',
restart_mode='from_scratch',
verbosity='high',
prefix='',
pseudo_dir='/PPs',
outdir='.',
/
&system
  ibrav=0, 
  nat,
  ntyp,
  ecutwfc=250,
  ecutrho=1000,
  occupations = 'smearing',
  nosym = .TRUE.,
  smearing = 'cold',
  degauss = 0.001,
  input_dft='PBE',
/
&electrons
  mixing_beta=0.7,/
  conv_thr=1d-8,
/
ATOMIC_SPECIES
Ti    47.880001 Ti.pbe-mt_fhi.UPF
S     32.066002 S.pbe-hgh.UPF
K_POINTS automatic
12 12 4 1 1 1
