&control
calculation='scf',
restart_mode='from_scratch',
verbosity='high',
prefix='TiS2',
pseudo_dir='.',
outdir='.',
/
&system
  ibrav=0, 
  nat,
  ntyp,
  ecutwfc=250,
  ecutrho=1000,
  occupations = 'smearing',
  nosym = .TRUE.,
  smearing = 'cold',
  degauss = 0.001,
  input_dft='PBE',
/
&electrons
  mixing_beta=0.7,/
  conv_thr=1d-8,
/
ATOMIC_SPECIES
Ti    47.880001 Ti.ncpp.UPF
S     32.066002 S.ncpp.UPF
CELL_PARAMETERS { angstrom }
3.397631	0.000000	0.000000
-1.698816	2.942435	0.000000
0.000000	0.000000	5.665452
ATOMIC_POSITIONS { angstrom }
Ti	0.000000	0.000000	0.000000
S	1.699110	0.980642	1.418114
S	-0.000294	1.961794	-1.418114
K_POINTS automatic
12 12 4 1 1 1
